# Basic setup:
ISTART = 1                 #这个改成1
ICHARGE = 11            #添加一行读取CHGCAR
LORBIT = 11                #添加一行算投影能带
ENCUT = 600
LWAVE = .FALSE.
LCHARG = .False.    #这个改成TRUE 在能带计算中也可以关闭 

# SPIN
ISPIN = 2
LMAXMIX = 6
LASPH = .TRUE.      #准确计算能带结构 非常重要 尤其是f轨道

# Accuracy controls:
PREC = Normal
ALGO = Fast
LREAL = Auto
ADDGRID = .TRUE.

# Electronic Relaxation:
NELM = 90
NLEMIN = 6
ISMEAR = 0
SIGMA = 0.05
EDIFF = 1E-05

# Ionic Relaxation
NSW = 0          #这个改成0
IBRION = 2
ISIF = 3
EDIFFG = -0.02
