# Basic setup:
ISTART = 0
ENCUT = 600
LWAVE = .FALSE.
LCHARG = .TRUE.    #这个改成TRUE 


# SPIN
ISPIN = 2
LMAXMIX = 6
LASPH = .TRUE.      #准确计算能带结构 非常重要 尤其是f轨道

# Accuracy controls:
PREC = Normal
ALGO = Normal      #这个改成Normal
LREAL = Auto 
ADDGRID = .TRUE.

# Electronic Relaxation:
NELM = 90
NLEMIN = 6
ISMEAR = 0
SIGMA = 0.05
EDIFF = 1E-06     #这个改成1E-06


# Ionic Relaxation
NSW = 0          #这个改成0
IBRION = 2
ISIF = 3
#删掉EDIFFG
